
Gurobi 10.0.3 (win64) logging started Sat Nov  9 17:12:07 2024

Set parameter LogFile to value "r3.AS.lp.log"
Gurobi Optimizer version 10.0.3 build v10.0.3rc0 (win64)

CPU model: 12th Gen Intel(R) Core(TM) i5-1240P, instruction set [SSE2|AVX|AVX2]
Thread count: 12 physical cores, 16 logical processors, using up to 2 threads

Optimize a model with 1033 rows, 568 columns and 5968 nonzeros
Model fingerprint: 0x697f434f
Variable types: 0 continuous, 568 integer (568 binary)
Coefficient statistics:
  Matrix range     [1e+00, 7e+00]
  Objective range  [1e+00, 1e+00]
  Bounds range     [1e+00, 1e+00]
  RHS range        [1e+00, 9e+00]
Presolve removed 248 rows and 256 columns
Presolve time: 0.01s
Presolved: 785 rows, 312 columns, 5336 nonzeros
Variable types: 0 continuous, 312 integer (312 binary)
Found heuristic solution: objective 24.0000000
Found heuristic solution: objective 5.0000000

Root relaxation: objective 0.000000e+00, 2 iterations, 0.00 seconds (0.00 work units)

    Nodes    |    Current Node    |     Objective Bounds      |     Work
 Expl Unexpl |  Obj  Depth IntInf | Incumbent    BestBd   Gap | It/Node Time

     0     0    0.00000    0    1    5.00000    0.00000   100%     -    0s
H    0     0                       2.0000000    0.00000   100%     -    0s
     0     0    0.00000    0    1    2.00000    0.00000   100%     -    0s
     0     0    0.00000    0    1    2.00000    0.00000   100%     -    0s
     0     0    0.00000    0    1    2.00000    0.00000   100%     -    0s
     0     0    0.00000    0    1    2.00000    0.00000   100%     -    0s
     0     0    0.00000    0    1    2.00000    0.00000   100%     -    0s
     0     0    0.00000    0    1    2.00000    0.00000   100%     -    0s
     0     2    1.00000    0    1    2.00000    1.00000  50.0%     -    0s

Cutting planes:
  Gomory: 2
  Cover: 5

Explored 9 nodes (120 simplex iterations) in 0.07 seconds (0.06 work units)
Thread count was 2 (of 16 available processors)

Solution count 3: 2 5 24 

Optimal solution found (tolerance 1.00e-04)
Best objective 2.000000000000e+00, best bound 2.000000000000e+00, gap 0.0000%
